p cnf 2125
-5 1
-8 -192
-9 -257
-10 -321
-11 -384
-12 -446
-13 -450
-14 -458
-15 -467
-16 -476
-17 -485
-18 -494
-19 -503
-20 -505
-21 5
-22 6
-23 7
-24 8
-25 9
-26 10
-27 11
-28 12
-29 13
-30 14
-31 15
-32 16
-33 17
-34 18
-35 19
-36 20
-37 1
-37 2
-1 -2 37
-38 1
-38 3
-1 -3 38
-39 1
-39 4
-1 -4 39
-40 2
-40 3
-2 -3 40
-41 2
-41 4
-2 -4 41
-42 -2
-42 38
2 -38 42
-43 2
-43 -38
-2 38 43
-44 -42
-44 -43
42 43 44
-45 2
-45 38
-2 -38 45
-46 -37
-46 -44
37 44 46
-47 37
-47 44
-37 -44 47
-48 -46
-48 -47
46 47 48
-49 37
-49 -44
-37 44 49
-50 -45
-50 -49
45 49 50
-51 39
-51 -40
-39 40 51
-52 -39
-52 40
39 -40 52
-53 -51
-53 -52
51 52 53
-54 39
-54 40
-39 -40 54
-55 50
-55 -53
-50 53 55
-56 -50
-56 53
50 -53 56
-57 -55
-57 -56
55 56 57
-58 -50
-58 -53
50 53 58
-59 -54
-59 -58
54 58 59
-60 41
-60 59
-41 -59 60
-61 -41
-61 -59
41 59 61
-62 -60
-62 -61
60 61 62
-63 41
-63 -59
-41 59 63
-64 3
-64 4
-3 -4 64
-65 -38
-65 -48
38 48 65
-66 38
-66 48
-38 -48 66
-67 -65
-67 -66
65 66 67
-68 38
-68 -48
-38 48 68
-69 -40
-69 -57
40 57 69
-70 40
-70 57
-40 -57 70
-71 -69
-71 -70
69 70 71
-72 40
-72 -57
-40 57 72
-73 -68
-73 -71
68 71 73
-74 68
-74 71
-68 -71 74
-75 -73
-75 -74
73 74 75
-76 68
-76 -71
-68 71 76
-77 -72
-77 -76
72 76 77
-78 -3
-78 -62
3 62 78
-79 3
-79 62
-3 -62 79
-80 -78
-80 -79
78 79 80
-81 3
-81 -62
-3 62 81
-82 77
-82 -80
-77 80 82
-83 -77
-83 80
77 -80 83
-84 -82
-84 -83
82 83 84
-85 -77
-85 -80
77 80 85
-86 -81
-86 -85
81 85 86
-87 63
-87 -64
-63 64 87
-88 -63
-88 64
63 -64 88
-89 -87
-89 -88
87 88 89
-90 63
-90 64
-63 -64 90
-91 86
-91 -89
-86 89 91
-92 -86
-92 89
86 -89 92
-93 -91
-93 -92
91 92 93
-94 -86
-94 -89
86 89 94
-95 -90
-95 -94
90 94 95
-96 -39
-96 -75
39 75 96
-97 39
-97 75
-39 -75 97
-98 -96
-98 -97
96 97 98
-99 39
-99 -75
-39 75 99
-100 -41
-100 -84
41 84 100
-101 41
-101 84
-41 -84 101
-102 -100
-102 -101
100 101 102
-103 41
-103 -84
-41 84 103
-104 -99
-104 -102
99 102 104
-105 99
-105 102
-99 -102 105
-106 -104
-106 -105
104 105 106
-107 99
-107 -102
-99 102 107
-108 -103
-108 -107
103 107 108
-109 -64
-109 -93
64 93 109
-110 64
-110 93
-64 -93 110
-111 -109
-111 -110
109 110 111
-112 64
-112 -93
-64 93 112
-113 108
-113 -111
-108 111 113
-114 -108
-114 111
108 -111 114
-115 -113
-115 -114
113 114 115
-116 -108
-116 -111
108 111 116
-117 -112
-117 -116
112 116 117
-118 -4
-118 -95
4 95 118
-119 4
-119 95
-4 -95 119
-120 -118
-120 -119
118 119 120
-121 4
-121 -95
-4 95 121
-122 117
-122 -120
-117 120 122
-123 -117
-123 120
117 -120 123
-124 -122
-124 -123
122 123 124
-125 -117
-125 -120
117 120 125
-126 -121
-126 -125
121 125 126
-127 1
-127 -67
-1 67 127
-128 1
-128 -98
-1 98 128
-129 1
-129 -106
-1 106 129
-130 1
-130 -115
-1 115 130
-131 1
-131 -124
-1 124 131
-132 1
-132 -126
-1 126 132
-133 -67
-133 -98
67 98 133
-134 -67
-134 -106
67 106 134
-135 -67
-135 -115
67 115 135
-136 -67
-136 -124
67 124 136
-137 -67
-137 -126
67 126 137
-138 -127
-138 128
127 -128 138
-139 127
-139 -128
-127 128 139
-140 -138
-140 -139
138 139 140
-141 127
-141 128
-127 -128 141
-142 67
-142 129
-67 -129 142
-143 -67
-143 -129
67 129 143
-144 -142
-144 -143
142 143 144
-145 -67
-145 129
67 -129 145
-146 -141
-146 -144
141 144 146
-147 141
-147 144
-141 -144 147
-148 -146
-148 -147
146 147 148
-149 141
-149 -144
-141 144 149
-150 -145
-150 -149
145 149 150
-151 130
-151 -133
-130 133 151
-152 -130
-152 133
130 -133 152
-153 -151
-153 -152
151 152 153
-154 130
-154 133
-130 -133 154
-155 150
-155 -153
-150 153 155
-156 -150
-156 153
150 -153 156
-157 -155
-157 -156
155 156 157
-158 -150
-158 -153
150 153 158
-159 -154
-159 -158
154 158 159
-160 131
-160 -134
-131 134 160
-161 -131
-161 134
131 -134 161
-162 -160
-162 -161
160 161 162
-163 131
-163 134
-131 -134 163
-164 159
-164 -162
-159 162 164
-165 -159
-165 162
159 -162 165
-166 -164
-166 -165
164 165 166
-167 -159
-167 -162
159 162 167
-168 -163
-168 -167
163 167 168
-169 132
-169 -135
-132 135 169
-170 -132
-170 135
132 -135 170
-171 -169
-171 -170
169 170 171
-172 132
-172 135
-132 -135 172
-173 168
-173 -171
-168 171 173
-174 -168
-174 171
168 -171 174
-175 -173
-175 -174
173 174 175
-176 -168
-176 -171
168 171 176
-177 -172
-177 -176
172 176 177
-178 136
-178 177
-136 -177 178
-179 -136
-179 -177
136 177 179
-180 -178
-180 -179
178 179 180
-181 136
-181 -177
-136 177 181
-182 137
-182 -181
-137 181 182
-183 -137
-183 181
137 -181 183
-184 -182
-184 -183
182 183 184
-185 137
-185 181
-137 -181 185
-186 -98
-186 -106
98 106 186
-187 -98
-187 -115
98 115 187
-188 -98
-188 -124
98 124 188
-189 -98
-189 -126
98 126 189
-190 -128
-190 -140
128 140 190
-191 128
-191 140
-128 -140 191
-192 -190
-192 -191
190 191 192
-193 128
-193 -140
-128 140 193
-194 -148
-194 -193
148 193 194
-195 148
-195 193
-148 -193 195
-196 -194
-196 -195
194 195 196
-197 -148
-197 193
148 -193 197
-198 -133
-198 -157
133 157 198
-199 133
-199 157
-133 -157 199
-200 -198
-200 -199
198 199 200
-201 133
-201 -157
-133 157 201
-202 -197
-202 -200
197 200 202
-203 197
-203 200
-197 -200 203
-204 -202
-204 -203
202 203 204
-205 197
-205 -200
-197 200 205
-206 -201
-206 -205
201 205 206
-207 98
-207 -166
-98 166 207
-208 -98
-208 166
98 -166 208
-209 -207
-209 -208
207 208 209
-210 -98
-210 -166
98 166 210
-211 206
-211 -209
-206 209 211
-212 -206
-212 209
206 -209 212
-213 -211
-213 -212
211 212 213
-214 -206
-214 -209
206 209 214
-215 -210
-215 -214
210 214 215
-216 -175
-216 -186
175 186 216
-217 175
-217 186
-175 -186 217
-218 -216
-218 -217
216 217 218
-219 -175
-219 186
175 -186 219
-220 215
-220 -218
-215 218 220
-221 -215
-221 218
215 -218 221
-222 -220
-222 -221
220 221 222
-223 -215
-223 -218
215 218 223
-224 -219
-224 -223
219 223 224
-225 -180
-225 -187
180 187 225
-226 180
-226 187
-180 -187 226
-227 -225
-227 -226
225 226 227
-228 -180
-228 187
180 -187 228
-229 224
-229 -227
-224 227 229
-230 -224
-230 227
224 -227 230
-231 -229
-231 -230
229 230 231
-232 -224
-232 -227
224 227 232
-233 -228
-233 -232
228 232 233
-234 -184
-234 -188
184 188 234
-235 184
-235 188
-184 -188 235
-236 -234
-236 -235
234 235 236
-237 -184
-237 188
184 -188 237
-238 233
-238 -236
-233 236 238
-239 -233
-239 236
233 -236 239
-240 -238
-240 -239
238 239 240
-241 -233
-241 -236
233 236 241
-242 -237
-242 -241
237 241 242
-243 185
-243 -189
-185 189 243
-244 -185
-244 189
185 -189 244
-245 -243
-245 -244
243 244 245
-246 185
-246 189
-185 -189 246
-247 242
-247 -245
-242 245 247
-248 -242
-248 245
242 -245 248
-249 -247
-249 -248
247 248 249
-250 -242
-250 -245
242 245 250
-251 -246
-251 -250
246 250 251
-252 -106
-252 -115
106 115 252
-253 -106
-253 -124
106 124 253
-254 -106
-254 -126
106 126 254
-255 -129
-255 -196
129 196 255
-256 129
-256 196
-129 -196 256
-257 -255
-257 -256
255 256 257
-258 129
-258 -196
-129 196 258
-259 -204
-259 -258
204 258 259
-260 204
-260 258
-204 -258 260
-261 -259
-261 -260
259 260 261
-262 -204
-262 258
204 -258 262
-263 -134
-263 -213
134 213 263
-264 134
-264 213
-134 -213 264
-265 -263
-265 -264
263 264 265
-266 134
-266 -213
-134 213 266
-267 -262
-267 -265
262 265 267
-268 262
-268 265
-262 -265 268
-269 -267
-269 -268
267 268 269
-270 262
-270 -265
-262 265 270
-271 -266
-271 -270
266 270 271
-272 -186
-272 -222
186 222 272
-273 186
-273 222
-186 -222 273
-274 -272
-274 -273
272 273 274
-275 186
-275 -222
-186 222 275
-276 271
-276 -274
-271 274 276
-277 -271
-277 274
271 -274 277
-278 -276
-278 -277
276 277 278
-279 -271
-279 -274
271 274 279
-280 -275
-280 -279
275 279 280
-281 106
-281 -231
-106 231 281
-282 -106
-282 231
106 -231 282
-283 -281
-283 -282
281 282 283
-284 -106
-284 -231
106 231 284
-285 280
-285 -283
-280 283 285
-286 -280
-286 283
280 -283 286
-287 -285
-287 -286
285 286 287
-288 -280
-288 -283
280 283 288
-289 -284
-289 -288
284 288 289
-290 -240
-290 -252
240 252 290
-291 240
-291 252
-240 -252 291
-292 -290
-292 -291
290 291 292
-293 -240
-293 252
240 -252 293
-294 289
-294 -292
-289 292 294
-295 -289
-295 292
289 -292 295
-296 -294
-296 -295
294 295 296
-297 -289
-297 -292
289 292 297
-298 -293
-298 -297
293 297 298
-299 -249
-299 -253
249 253 299
-300 249
-300 253
-249 -253 300
-301 -299
-301 -300
299 300 301
-302 -249
-302 253
249 -253 302
-303 298
-303 -301
-298 301 303
-304 -298
-304 301
298 -301 304
-305 -303
-305 -304
303 304 305
-306 -298
-306 -301
298 301 306
-307 -302
-307 -306
302 306 307
-308 -251
-308 -254
251 254 308
-309 251
-309 254
-251 -254 309
-310 -308
-310 -309
308 309 310
-311 -251
-311 254
251 -254 311
-312 307
-312 -310
-307 310 312
-313 -307
-313 310
307 -310 313
-314 -312
-314 -313
312 313 314
-315 -307
-315 -310
307 310 315
-316 -311
-316 -315
311 315 316
-317 -115
-317 -124
115 124 317
-318 -115
-318 -126
115 126 318
-319 -130
-319 -261
130 261 319
-320 130
-320 261
-130 -261 320
-321 -319
-321 -320
319 320 321
-322 130
-322 -261
-130 261 322
-323 -269
-323 -322
269 322 323
-324 269
-324 322
-269 -322 324
-325 -323
-325 -324
323 324 325
-326 -269
-326 322
269 -322 326
-327 -135
-327 -278
135 278 327
-328 135
-328 278
-135 -278 328
-329 -327
-329 -328
327 328 329
-330 135
-330 -278
-135 278 330
-331 -326
-331 -329
326 329 331
-332 326
-332 329
-326 -329 332
-333 -331
-333 -332
331 332 333
-334 326
-334 -329
-326 329 334
-335 -330
-335 -334
330 334 335
-336 -187
-336 -287
187 287 336
-337 187
-337 287
-187 -287 337
-338 -336
-338 -337
336 337 338
-339 187
-339 -287
-187 287 339
-340 335
-340 -338
-335 338 340
-341 -335
-341 338
335 -338 341
-342 -340
-342 -341
340 341 342
-343 -335
-343 -338
335 338 343
-344 -339
-344 -343
339 343 344
-345 -252
-345 -296
252 296 345
-346 252
-346 296
-252 -296 346
-347 -345
-347 -346
345 346 347
-348 252
-348 -296
-252 296 348
-349 344
-349 -347
-344 347 349
-350 -344
-350 347
344 -347 350
-351 -349
-351 -350
349 350 351
-352 -344
-352 -347
344 347 352
-353 -348
-353 -352
348 352 353
-354 115
-354 -305
-115 305 354
-355 -115
-355 305
115 -305 355
-356 -354
-356 -355
354 355 356
-357 -115
-357 -305
115 305 357
-358 353
-358 -356
-353 356 358
-359 -353
-359 356
353 -356 359
-360 -358
-360 -359
358 359 360
-361 -353
-361 -356
353 356 361
-362 -357
-362 -361
357 361 362
-363 -314
-363 -317
314 317 363
-364 314
-364 317
-314 -317 364
-365 -363
-365 -364
363 364 365
-366 -314
-366 317
314 -317 366
-367 362
-367 -365
-362 365 367
-368 -362
-368 365
362 -365 368
-369 -367
-369 -368
367 368 369
-370 -362
-370 -365
362 365 370
-371 -366
-371 -370
366 370 371
-372 -316
-372 -318
316 318 372
-373 316
-373 318
-316 -318 373
-374 -372
-374 -373
372 373 374
-375 -316
-375 318
316 -318 375
-376 371
-376 -374
-371 374 376
-377 -371
-377 374
371 -374 377
-378 -376
-378 -377
376 377 378
-379 -371
-379 -374
371 374 379
-380 -375
-380 -379
375 379 380
-381 -124
-381 -126
124 126 381
-382 -131
-382 -325
131 325 382
-383 131
-383 325
-131 -325 383
-384 -382
-384 -383
382 383 384
-385 131
-385 -325
-131 325 385
-386 -333
-386 -385
333 385 386
-387 333
-387 385
-333 -385 387
-388 -386
-388 -387
386 387 388
-389 -333
-389 385
333 -385 389
-390 -136
-390 -342
136 342 390
-391 136
-391 342
-136 -342 391
-392 -390
-392 -391
390 391 392
-393 136
-393 -342
-136 342 393
-394 -389
-394 -392
389 392 394
-395 389
-395 392
-389 -392 395
-396 -394
-396 -395
394 395 396
-397 389
-397 -392
-389 392 397
-398 -393
-398 -397
393 397 398
-399 -188
-399 -351
188 351 399
-400 188
-400 351
-188 -351 400
-401 -399
-401 -400
399 400 401
-402 188
-402 -351
-188 351 402
-403 398
-403 -401
-398 401 403
-404 -398
-404 401
398 -401 404
-405 -403
-405 -404
403 404 405
-406 -398
-406 -401
398 401 406
-407 -402
-407 -406
402 406 407
-408 -253
-408 -360
253 360 408
-409 253
-409 360
-253 -360 409
-410 -408
-410 -409
408 409 410
-411 253
-411 -360
-253 360 411
-412 407
-412 -410
-407 410 412
-413 -407
-413 410
407 -410 413
-414 -412
-414 -413
412 413 414
-415 -407
-415 -410
407 410 415
-416 -411
-416 -415
411 415 416
-417 -317
-417 -369
317 369 417
-418 317
-418 369
-317 -369 418
-419 -417
-419 -418
417 418 419
-420 317
-420 -369
-317 369 420
-421 416
-421 -419
-416 419 421
-422 -416
-422 419
416 -419 422
-423 -421
-423 -422
421 422 423
-424 -416
-424 -419
416 419 424
-425 -420
-425 -424
420 424 425
-426 124
-426 -378
-124 378 426
-427 -124
-427 378
124 -378 427
-428 -426
-428 -427
426 427 428
-429 -124
-429 -378
124 378 429
-430 425
-430 -428
-425 428 430
-431 -425
-431 428
425 -428 431
-432 -430
-432 -431
430 431 432
-433 -425
-433 -428
425 428 433
-434 -429
-434 -433
429 433 434
-435 -380
-435 -381
380 381 435
-436 380
-436 381
-380 -381 436
-437 -435
-437 -436
435 436 437
-438 -380
-438 381
380 -381 438
-439 434
-439 -437
-434 437 439
-440 -434
-440 437
434 -437 440
-441 -439
-441 -440
439 440 441
-442 -434
-442 -437
434 437 442
-443 -438
-443 -442
438 442 443
-444 -132
-444 -388
132 388 444
-445 132
-445 388
-132 -388 445
-446 -444
-446 -445
444 445 446
-447 132
-447 -388
-132 388 447
-448 -396
-448 -447
396 447 448
-449 396
-449 447
-396 -447 449
-450 -448
-450 -449
448 449 450
-451 -396
-451 447
396 -447 451
-452 -137
-452 -405
137 405 452
-453 137
-453 405
-137 -405 453
-454 -452
-454 -453
452 453 454
-455 137
-455 -405
-137 405 455
-456 -451
-456 -454
451 454 456
-457 451
-457 454
-451 -454 457
-458 -456
-458 -457
456 457 458
-459 451
-459 -454
-451 454 459
-460 -455
-460 -459
455 459 460
-461 -189
-461 -414
189 414 461
-462 189
-462 414
-189 -414 462
-463 -461
-463 -462
461 462 463
-464 189
-464 -414
-189 414 464
-465 460
-465 -463
-460 463 465
-466 -460
-466 463
460 -463 466
-467 -465
-467 -466
465 466 467
-468 -460
-468 -463
460 463 468
-469 -464
-469 -468
464 468 469
-470 -254
-470 -423
254 423 470
-471 254
-471 423
-254 -423 471
-472 -470
-472 -471
470 471 472
-473 254
-473 -423
-254 423 473
-474 469
-474 -472
-469 472 474
-475 -469
-475 472
469 -472 475
-476 -474
-476 -475
474 475 476
-477 -469
-477 -472
469 472 477
-478 -473
-478 -477
473 477 478
-479 -318
-479 -432
318 432 479
-480 318
-480 432
-318 -432 480
-481 -479
-481 -480
479 480 481
-482 318
-482 -432
-318 432 482
-483 478
-483 -481
-478 481 483
-484 -478
-484 481
478 -481 484
-485 -483
-485 -484
483 484 485
-486 -478
-486 -481
478 481 486
-487 -482
-487 -486
482 486 487
-488 -381
-488 -441
381 441 488
-489 381
-489 441
-381 -441 489
-490 -488
-490 -489
488 489 490
-491 381
-491 -441
-381 441 491
-492 487
-492 -490
-487 490 492
-493 -487
-493 490
487 -490 493
-494 -492
-494 -493
492 493 494
-495 -487
-495 -490
487 490 495
-496 -491
-496 -495
491 495 496
-497 126
-497 -443
-126 443 497
-498 -126
-498 443
126 -443 498
-499 -497
-499 -498
497 498 499
-500 -126
-500 -443
126 443 500
-501 496
-501 -499
-496 499 501
-502 -496
-502 499
496 -499 502
-503 -501
-503 -502
501 502 503
-504 -496
-504 -499
496 499 504
-505 -500
-505 -504
500 504 505
-506 1
-506 -5
-1 5 506
-507 -1
-507 5
1 -5 507
-508 -506
-508 -507
506 507 508
-509 1
-509 5
-1 -5 509
-510 6
-510 -509
-6 509 510
-511 -6
-511 509
6 -509 511
-512 -510
-512 -511
510 511 512
-513 6
-513 509
-6 -509 513
-514 7
-514 -513
-7 513 514
-515 -7
-515 513
7 -513 515
-516 -514
-516 -515
514 515 516
-517 7
-517 513
-7 -513 517
-518 -8
-518 -192
8 192 518
-519 8
-519 192
-8 -192 519
-520 -518
-520 -519
518 519 520
-521 8
-521 -192
-8 192 521
-522 -517
-522 -520
517 520 522
-523 517
-523 520
-517 -520 523
-524 -522
-524 -523
522 523 524
-525 517
-525 -520
-517 520 525
-526 -521
-526 -525
521 525 526
-527 -9
-527 -257
9 257 527
-528 9
-528 257
-9 -257 528
-529 -527
-529 -528
527 528 529
-530 9
-530 -257
-9 257 530
-531 526
-531 -529
-526 529 531
-532 -526
-532 529
526 -529 532
-533 -531
-533 -532
531 532 533
-534 -526
-534 -529
526 529 534
-535 -530
-535 -534
530 534 535
-536 -10
-536 -321
10 321 536
-537 10
-537 321
-10 -321 537
-538 -536
-538 -537
536 537 538
-539 10
-539 -321
-10 321 539
-540 535
-540 -538
-535 538 540
-541 -535
-541 538
535 -538 541
-542 -540
-542 -541
540 541 542
-543 -535
-543 -538
535 538 543
-544 -539
-544 -543
539 543 544
-545 -11
-545 -384
11 384 545
-546 11
-546 384
-11 -384 546
-547 -545
-547 -546
545 546 547
-548 11
-548 -384
-11 384 548
-549 544
-549 -547
-544 547 549
-550 -544
-550 547
544 -547 550
-551 -549
-551 -550
549 550 551
-552 -544
-552 -547
544 547 552
-553 -548
-553 -552
548 552 553
-554 -12
-554 -446
12 446 554
-555 12
-555 446
-12 -446 555
-556 -554
-556 -555
554 555 556
-557 12
-557 -446
-12 446 557
-558 553
-558 -556
-553 556 558
-559 -553
-559 556
553 -556 559
-560 -558
-560 -559
558 559 560
-561 -553
-561 -556
553 556 561
-562 -557
-562 -561
557 561 562
-563 -13
-563 -450
13 450 563
-564 13
-564 450
-13 -450 564
-565 -563
-565 -564
563 564 565
-566 13
-566 -450
-13 450 566
-567 562
-567 -565
-562 565 567
-568 -562
-568 565
562 -565 568
-569 -567
-569 -568
567 568 569
-570 -562
-570 -565
562 565 570
-571 -566
-571 -570
566 570 571
-572 -14
-572 -458
14 458 572
-573 14
-573 458
-14 -458 573
-574 -572
-574 -573
572 573 574
-575 14
-575 -458
-14 458 575
-576 571
-576 -574
-571 574 576
-577 -571
-577 574
571 -574 577
-578 -576
-578 -577
576 577 578
-579 -571
-579 -574
571 574 579
-580 -575
-580 -579
575 579 580
-581 -15
-581 -467
15 467 581
-582 15
-582 467
-15 -467 582
-583 -581
-583 -582
581 582 583
-584 15
-584 -467
-15 467 584
-585 580
-585 -583
-580 583 585
-586 -580
-586 583
580 -583 586
-587 -585
-587 -586
585 586 587
-588 -580
-588 -583
580 583 588
-589 -584
-589 -588
584 588 589
-590 -16
-590 -476
16 476 590
-591 16
-591 476
-16 -476 591
-592 -590
-592 -591
590 591 592
-593 16
-593 -476
-16 476 593
-594 589
-594 -592
-589 592 594
-595 -589
-595 592
589 -592 595
-596 -594
-596 -595
594 595 596
-597 -589
-597 -592
589 592 597
-598 -593
-598 -597
593 597 598
-599 -17
-599 -485
17 485 599
-600 17
-600 485
-17 -485 600
-601 -599
-601 -600
599 600 601
-602 17
-602 -485
-17 485 602
-603 598
-603 -601
-598 601 603
-604 -598
-604 601
598 -601 604
-605 -603
-605 -604
603 604 605
-606 -598
-606 -601
598 601 606
-607 -602
-607 -606
602 606 607
-608 -18
-608 -494
18 494 608
-609 18
-609 494
-18 -494 609
-610 -608
-610 -609
608 609 610
-611 18
-611 -494
-18 494 611
-612 607
-612 -610
-607 610 612
-613 -607
-613 610
607 -610 613
-614 -612
-614 -613
612 613 614
-615 -607
-615 -610
607 610 615
-616 -611
-616 -615
611 615 616
-617 -19
-617 -503
19 503 617
-618 19
-618 503
-19 -503 618
-619 -617
-619 -618
617 618 619
-620 19
-620 -503
-19 503 620
-621 616
-621 -619
-616 619 621
-622 -616
-622 619
616 -619 622
-623 -621
-623 -622
621 622 623
-624 -616
-624 -619
616 619 624
-625 -620
-625 -624
620 624 625
-626 -20
-626 -505
20 505 626
-627 20
-627 505
-20 -505 627
-628 -626
-628 -627
626 627 628
-629 20
-629 -505
-20 505 629
-630 625
-630 -628
-625 628 630
-631 -625
-631 628
625 -628 631
-632 -630
-632 -631
630 631 632
-633 -625
-633 -628
625 628 633
-634 -629
-634 -633
629 633 634
-635 21
-635 -508
-21 508 635
-636 -21
-636 508
21 -508 636
-637 -635
-637 -636
635 636 637
-638 22
-638 -512
-22 512 638
-639 -22
-639 512
22 -512 639
-640 -638
-640 -639
638 639 640
-641 23
-641 -516
-23 516 641
-642 -23
-642 516
23 -516 642
-643 -641
-643 -642
641 642 643
-644 24
-644 -524
-24 524 644
-645 -24
-645 524
24 -524 645
-646 -644
-646 -645
644 645 646
-647 25
-647 -533
-25 533 647
-648 -25
-648 533
25 -533 648
-649 -647
-649 -648
647 648 649
-650 26
-650 -542
-26 542 650
-651 -26
-651 542
26 -542 651
-652 -650
-652 -651
650 651 652
-653 27
-653 -551
-27 551 653
-654 -27
-654 551
27 -551 654
-655 -653
-655 -654
653 654 655
-656 28
-656 -560
-28 560 656
-657 -28
-657 560
28 -560 657
-658 -656
-658 -657
656 657 658
-659 29
-659 -569
-29 569 659
-660 -29
-660 569
29 -569 660
-661 -659
-661 -660
659 660 661
-662 30
-662 -578
-30 578 662
-663 -30
-663 578
30 -578 663
-664 -662
-664 -663
662 663 664
-665 31
-665 -587
-31 587 665
-666 -31
-666 587
31 -587 666
-667 -665
-667 -666
665 666 667
-668 32
-668 -596
-32 596 668
-669 -32
-669 596
32 -596 669
-670 -668
-670 -669
668 669 670
-671 33
-671 -605
-33 605 671
-672 -33
-672 605
33 -605 672
-673 -671
-673 -672
671 672 673
-674 34
-674 -614
-34 614 674
-675 -34
-675 614
34 -614 675
-676 -674
-676 -675
674 675 676
-677 35
-677 -623
-35 623 677
-678 -35
-678 623
35 -623 678
-679 -677
-679 -678
677 678 679
-680 36
-680 -632
-36 632 680
-681 -36
-681 632
36 -632 681
-682 -680
-682 -681
680 681 682
-683 -637
-683 -640
637 640 683
-684 -643
-684 -646
643 646 684
-685 -649
-685 -652
649 652 685
-686 -655
-686 -658
655 658 686
-687 -661
-687 -664
661 664 687
-688 -667
-688 -670
667 670 688
-689 -673
-689 -676
673 676 689
-690 -679
-690 -682
679 682 690
-691 683
-691 684
-683 -684 691
-692 685
-692 686
-685 -686 692
-693 687
-693 688
-687 -688 693
-694 689
-694 690
-689 -690 694
-695 691
-695 692
-691 -692 695
-696 693
-696 694
-693 -694 696
-697 695
-697 696
-695 -696 697
-698 634
-698 697
-634 -697 698
-699 -1
-699 -2
1 2 699
-700 -3
-700 -4
3 4 700
-701 699
-701 700
-699 -700 701
-702 -5
-702 -6
5 6 702
-703 -7
-703 -8
7 8 703
-704 -9
-704 -10
9 10 704
-705 -11
-705 -12
11 12 705
-706 -13
-706 -14
13 14 706
-707 -15
-707 -16
15 16 707
-708 -17
-708 -18
17 18 708
-709 -19
-709 -20
19 20 709
-710 702
-710 703
-702 -703 710
-711 704
-711 705
-704 -705 711
-712 706
-712 707
-706 -707 712
-713 708
-713 709
-708 -709 713
-714 710
-714 711
-710 -711 714
-715 712
-715 713
-712 -713 715
-716 714
-716 715
-714 -715 716
-717 -21
-717 -22
21 22 717
-718 -23
-718 -24
23 24 718
-719 -25
-719 -26
25 26 719
-720 -27
-720 -28
27 28 720
-721 -29
-721 -30
29 30 721
-722 -31
-722 -32
31 32 722
-723 -33
-723 -34
33 34 723
-724 -35
-724 -36
35 36 724
-725 717
-725 718
-717 -718 725
-726 719
-726 720
-719 -720 726
-727 721
-727 722
-721 -722 727
-728 723
-728 724
-723 -724 728
-729 725
-729 726
-725 -726 729
-730 727
-730 728
-727 -728 730
-731 729
-731 730
-729 -730 731
-732 -701
-732 -716
701 716 732
-733 -731
-733 732
731 -732 733
-734 698
-734 733
-698 -733 734
734
